python/products/linear_model.mps
* Source:     Pyomo MPS Writer
* Format:     Free MPS
*
NAME unknown
OBJSENSE
 MIN
ROWS
 N  x65
 E  c_e_x66_
 E  c_e_x67_
 E  c_e_x68_
 E  c_e_x69_
 E  c_e_x70_
 E  c_e_x71_
 E  c_e_x72_
 E  c_e_x73_
 E  c_e_x74_
 E  c_e_x75_
 E  c_e_x76_
 E  c_e_x77_
 E  c_e_x78_
 E  c_e_x79_
 E  c_e_x80_
 E  c_e_x81_
 E  c_e_x82_
 E  c_e_x83_
 E  c_e_x84_
 E  c_e_x85_
 E  c_e_x86_
 G  c_l_x87_
 G  c_l_x88_
 G  c_l_x89_
 L  c_u_x90_
 L  c_u_x91_
 L  c_u_x92_
 G  c_l_x93_
 G  c_l_x94_
 G  c_l_x95_
 G  c_l_x96_
 G  c_l_x97_
 G  c_l_x98_
 G  c_l_x99_
 G  c_l_x100_
 G  c_l_x101_
 G  c_l_x102_
 G  c_l_x103_
 G  c_l_x104_
 G  c_l_x105_
 G  c_l_x106_
 G  c_l_x107_
 G  c_l_x108_
 G  c_l_x109_
 G  c_l_x110_
 G  c_l_x111_
 G  c_l_x112_
 G  c_l_x113_
 G  c_l_x114_
 G  c_l_x115_
 L  c_u_x116_
 L  c_u_x117_
 L  c_u_x118_
 L  c_u_x119_
 L  c_u_x120_
 L  c_u_x121_
 L  c_u_x122_
 L  c_u_x123_
 L  c_u_x124_
 L  c_u_x125_
 L  c_u_x126_
 L  c_u_x127_
 L  c_u_x128_
 L  c_u_x129_
 L  c_u_x130_
 L  c_u_x131_
 L  c_u_x132_
 L  c_u_x133_
 L  c_u_x134_
 L  c_u_x135_
 E  c_e_x136_
 E  c_e_x137_
 E  c_e_x138_
 E  c_e_x139_
 E  c_e_x140_
 E  c_e_x141_
 E  c_e_x142_
 E  c_e_x143_
 E  c_e_x144_
 E  c_e_x145_
 E  c_e_x146_
 E  c_e_x147_
 E  c_e_x148_
 E  c_e_x149_
 E  c_e_x150_
 E  c_e_x151_
 E  c_e_x152_
 E  c_e_x153_
 E  c_e_x154_
 E  c_e_x155_
 G  c_l_x156_
 G  c_l_x157_
 G  c_l_x158_
 G  c_l_x159_
 G  c_l_x160_
 G  c_l_x161_
 G  c_l_x162_
 G  c_l_x163_
 G  c_l_x164_
 G  c_l_x165_
 G  c_l_x166_
 G  c_l_x167_
 G  c_l_x168_
 G  c_l_x169_
 G  c_l_x170_
 G  c_l_x171_
 G  c_l_x172_
 G  c_l_x173_
 G  c_l_x174_
 G  c_l_x175_
 L  c_u_x176_
 L  c_u_x177_
 L  c_u_x178_
 L  c_u_x179_
 L  c_u_x180_
 L  c_u_x181_
 L  c_u_x182_
 L  c_u_x183_
 L  c_u_x184_
 L  c_u_x185_
 L  c_u_x186_
 L  c_u_x187_
 L  c_u_x188_
 L  c_u_x189_
 L  c_u_x190_
 L  c_u_x191_
 L  c_u_x192_
 L  c_u_x193_
 L  c_u_x194_
 L  c_u_x195_
 E  c_e_ONE_VAR_CONSTANT
COLUMNS
     x1 c_e_x66_ -9.0702700000000007
     x1 c_e_x67_ -9.0702700000000007
     x1 c_l_x96_ 1
     x1 c_u_x116_ 1
     x2 c_e_x66_ 9.0702700000000007
     x2 c_e_x67_ 9.0702700000000007
     x2 c_e_x68_ -6.0468500000000001
     x2 c_e_x69_ -6.0468500000000001
     x2 c_l_x97_ 1
     x2 c_u_x117_ 1
     x3 c_e_x68_ 6.0468500000000001
     x3 c_e_x69_ 6.0468500000000001
     x3 c_e_x70_ -1.3954299999999999
     x3 c_l_x98_ 1
     x3 c_u_x118_ 1
     x4 c_e_x70_ 1.3954299999999999
     x4 c_e_x73_ 0.22689500000000001
     x4 c_e_x74_ -0.65965600000000002
     x4 c_l_x99_ 1
     x4 c_u_x119_ 1
     x5 c_e_x71_ -0.100256
     x5 c_l_x100_ 1
     x5 c_u_x120_ 1
     x6 c_e_x71_ 0.100256
     x6 c_e_x72_ -0.14865500000000001
     x6 c_l_x101_ 1
     x6 c_u_x121_ 1
     x7 c_e_x72_ 0.14865500000000001
     x7 c_e_x73_ -0.22689500000000001
     x7 c_l_x102_ 1
     x7 c_u_x122_ 1
     x8 x65 -0.02
     x8 c_l_x87_ -1
     x8 c_l_x88_ -1
     x8 c_u_x90_ -4
     x8 c_u_x91_ -4
     x8 c_l_x103_ 1
     x8 c_u_x123_ 1
     x9 x65 0.02
     x9 c_e_x75_ -1.8140499999999999
     x9 c_e_x76_ -0.027008399999999998
     x9 c_l_x87_ 1
     x9 c_l_x88_ 1
     x9 c_u_x90_ 1
     x9 c_u_x91_ 1
     x9 c_l_x104_ 1
     x9 c_u_x124_ 1
     x10 c_e_x75_ 1.8140499999999999
     x10 c_e_x76_ 0.027008399999999998
     x10 c_e_x77_ -1.4512400000000001
     x10 c_e_x78_ -0.0216067
     x10 c_l_x105_ 1
     x10 c_u_x125_ 1
     x11 c_e_x77_ 1.4512400000000001
     x11 c_e_x78_ 0.0216067
     x11 c_e_x79_ -0.86383600000000005
     x11 c_e_x84_ -0.051444499999999997
     x11 c_l_x106_ 1
     x11 c_u_x126_ 1
     x12 c_e_x79_ 0.86383600000000005
     x12 c_e_x80_ -0.90702700000000003
     x12 c_l_x107_ 1
     x12 c_u_x127_ 1
     x13 c_e_x80_ 0.90702700000000003
     x13 c_e_x81_ -7.2562199999999999
     x13 c_l_x108_ 1
     x13 c_u_x128_ 1
     x14 c_e_x74_ 0.65965600000000002
     x14 c_e_x81_ 7.2562199999999999
     x14 c_e_x82_ -3.6281099999999999
     x14 c_l_x109_ 1
     x14 c_u_x129_ 1
     x15 c_e_x82_ 3.6281099999999999
     x15 c_e_x83_ -1.4512400000000001
     x15 c_l_x110_ 1
     x15 c_u_x130_ 1
     x16 c_e_x83_ 1.4512400000000001
     x16 c_l_x111_ 1
     x16 c_u_x131_ 1
     x17 x65 -0.01
     x17 c_e_x84_ 0.051444499999999997
     x17 c_l_x89_ -1
     x17 c_u_x92_ -4
     x17 c_l_x112_ 1
     x17 c_u_x132_ 1
     x18 x65 0.01
     x18 c_e_x85_ -0.0017032
     x18 c_l_x89_ 1
     x18 c_u_x92_ 1
     x18 c_l_x113_ 1
     x18 c_u_x133_ 1
     x19 c_e_x85_ 0.0017032
     x19 c_e_x86_ -0.027819
     x19 c_l_x114_ 1
     x19 c_u_x134_ 1
     x20 c_e_x86_ 0.027819
     x20 c_l_x115_ 1
     x20 c_u_x135_ 1
     x21 c_e_x136_ 1
     x21 c_l_x156_ 1
     x21 c_u_x176_ 1
     x22 c_e_x137_ 1
     x22 c_l_x157_ 1
     x22 c_u_x177_ 1
     x23 x65 3000
     x23 c_e_x138_ 1
     x23 c_l_x158_ 1
     x23 c_u_x178_ 1
     x24 c_e_x139_ 1
     x24 c_l_x159_ 1
     x24 c_u_x179_ 1
     x25 c_e_x140_ 1
     x25 c_l_x160_ 1
     x25 c_u_x180_ 1
     x26 x65 3000
     x26 c_e_x141_ 1
     x26 c_l_x161_ 1
     x26 c_u_x181_ 1
     x27 x65 3000
     x27 c_e_x142_ 1
     x27 c_l_x162_ 1
     x27 c_u_x182_ 1
     x28 c_e_x143_ 1
     x28 c_l_x163_ 1
     x28 c_u_x183_ 1
     x29 c_e_x144_ 1
     x29 c_l_x164_ 1
     x29 c_u_x184_ 1
     x30 x65 3000
     x30 c_e_x145_ 1
     x30 c_l_x165_ 1
     x30 c_u_x185_ 1
     x31 c_e_x146_ 1
     x31 c_l_x166_ 1
     x31 c_u_x186_ 1
     x32 x65 3000
     x32 c_e_x147_ 1
     x32 c_l_x167_ 1
     x32 c_u_x187_ 1
     x33 c_e_x148_ 1
     x33 c_l_x168_ 1
     x33 c_u_x188_ 1
     x34 c_e_x149_ 1
     x34 c_l_x169_ 1
     x34 c_u_x189_ 1
     x35 x65 3000
     x35 c_e_x150_ 1
     x35 c_l_x170_ 1
     x35 c_u_x190_ 1
     x36 x65 3000
     x36 c_e_x151_ 1
     x36 c_l_x171_ 1
     x36 c_u_x191_ 1
     x37 c_e_x152_ 1
     x37 c_l_x172_ 1
     x37 c_u_x192_ 1
     x38 c_e_x153_ 1
     x38 c_l_x173_ 1
     x38 c_u_x193_ 1
     x39 x65 3000
     x39 c_e_x154_ 1
     x39 c_l_x174_ 1
     x39 c_u_x194_ 1
     x40 x65 3000
     x40 c_e_x155_ 1
     x40 c_l_x175_ 1
     x40 c_u_x195_ 1
     x41 c_e_x66_ 10.911288000000001
     x41 c_e_x136_ -1
     x41 c_e_x137_ 1
     x42 c_e_x67_ 10.911288000000001
     x42 c_e_x136_ -1
     x42 c_e_x137_ 1
     x43 c_e_x68_ 19.311288000000001
     x43 c_e_x137_ -1
     x43 c_e_x138_ 1
     x44 c_e_x69_ 19.311288000000001
     x44 c_e_x137_ -1
     x44 c_e_x138_ 1
     x45 c_e_x70_ 30.786576
     x45 c_e_x138_ -1
     x45 c_e_x139_ 1
     x46 c_e_x71_ 5.6294240000000002
     x46 c_e_x140_ -1
     x46 c_e_x141_ 1
     x47 c_e_x72_ 2.4385759999999999
     x47 c_e_x141_ -1
     x47 c_e_x142_ 1
     x48 c_e_x73_ 12.950576
     x48 c_e_x139_ 1
     x48 c_e_x142_ -1
     x49 c_e_x74_ 17.835999999999999
     x49 c_e_x139_ -1
     x49 c_e_x149_ 1
     x50 c_l_x93_ 1
     x50 c_e_x143_ -1
     x50 c_e_x144_ 1
     x51 c_l_x94_ 1
     x51 c_e_x143_ -1
     x51 c_e_x144_ 1
     x52 c_e_x75_ 39.236448000000003
     x52 c_e_x144_ -1
     x52 c_e_x145_ 1
     x53 c_e_x76_ 4.7875519999999998
     x53 c_e_x144_ -1
     x53 c_e_x145_ 1
     x54 c_e_x77_ 27.890817999999999
     x54 c_e_x145_ -1
     x54 c_e_x146_ 1
     x55 c_e_x78_ 3.4031820000000002
     x55 c_e_x145_ -1
     x55 c_e_x146_ 1
     x56 c_e_x79_ 27.012
     x56 c_e_x146_ -1
     x56 c_e_x147_ 1
     x57 c_e_x80_ 22.771999999999998
     x57 c_e_x147_ -1
     x57 c_e_x148_ 1
     x58 c_e_x81_ 25.172000000000001
     x58 c_e_x148_ -1
     x58 c_e_x149_ 1
     x59 c_e_x82_ 44.927999999999997
     x59 c_e_x149_ -1
     x59 c_e_x150_ 1
     x60 c_e_x83_ 31.231999999999999
     x60 c_e_x150_ -1
     x60 c_e_x151_ 1
     x61 c_e_x84_ 4.282
     x61 c_e_x146_ -1
     x61 c_e_x152_ 1
     x62 c_l_x95_ 1
     x62 c_e_x152_ -1
     x62 c_e_x153_ 1
     x63 c_e_x85_ 4.282
     x63 c_e_x153_ -1
     x63 c_e_x154_ 1
     x64 c_e_x86_ 3.8380000000000001
     x64 c_e_x154_ -1
     x64 c_e_x155_ 1
     ONE_VAR_CONSTANT x65 138894
     ONE_VAR_CONSTANT c_e_ONE_VAR_CONSTANT 1
RHS
     RHS c_e_x66_ 0
     RHS c_e_x67_ 0
     RHS c_e_x68_ 0
     RHS c_e_x69_ 0
     RHS c_e_x70_ 0
     RHS c_e_x71_ 0
     RHS c_e_x72_ 0
     RHS c_e_x73_ 0
     RHS c_e_x74_ 0
     RHS c_e_x75_ 0
     RHS c_e_x76_ 0
     RHS c_e_x77_ 0
     RHS c_e_x78_ 0
     RHS c_e_x79_ 0
     RHS c_e_x80_ 0
     RHS c_e_x81_ 0
     RHS c_e_x82_ 0
     RHS c_e_x83_ 0
     RHS c_e_x84_ 0
     RHS c_e_x85_ 0
     RHS c_e_x86_ 0
     RHS c_l_x87_ 0
     RHS c_l_x88_ 0
     RHS c_l_x89_ 0
     RHS c_u_x90_ 0
     RHS c_u_x91_ 0
     RHS c_u_x92_ 0
     RHS c_l_x93_ 0
     RHS c_l_x94_ 0
     RHS c_l_x95_ 0
     RHS c_l_x96_ 0
     RHS c_l_x97_ 0
     RHS c_l_x98_ 900
     RHS c_l_x99_ 0
     RHS c_l_x100_ 0
     RHS c_l_x101_ 900
     RHS c_l_x102_ 900
     RHS c_l_x103_ 2500
     RHS c_l_x104_ 0
     RHS c_l_x105_ 900
     RHS c_l_x106_ 0
     RHS c_l_x107_ 0
     RHS c_l_x108_ 0
     RHS c_l_x109_ 0
     RHS c_l_x110_ 0
     RHS c_l_x111_ 2500
     RHS c_l_x112_ 0
     RHS c_l_x113_ 0
     RHS c_l_x114_ 0
     RHS c_l_x115_ 625
     RHS c_u_x116_ 5929
     RHS c_u_x117_ 5929
     RHS c_u_x118_ 6400
     RHS c_u_x119_ 6400
     RHS c_u_x120_ 5929
     RHS c_u_x121_ 6400
     RHS c_u_x122_ 6400
     RHS c_u_x123_ 4382.4400000000005
     RHS c_u_x124_ 4382.4400000000005
     RHS c_u_x125_ 4382.4400000000005
     RHS c_u_x126_ 4382.4400000000005
     RHS c_u_x127_ 4382.4400000000005
     RHS c_u_x128_ 4382.4400000000005
     RHS c_u_x129_ 4382.4400000000005
     RHS c_u_x130_ 4382.4400000000005
     RHS c_u_x131_ 4382.4400000000005
     RHS c_u_x132_ 4382.4400000000005
     RHS c_u_x133_ 3969
     RHS c_u_x134_ 4382.4400000000005
     RHS c_u_x135_ 4382.4400000000005
     RHS c_e_x136_ 0
     RHS c_e_x137_ 0
     RHS c_e_x138_ 0
     RHS c_e_x139_ 0
     RHS c_e_x140_ 0
     RHS c_e_x141_ 0
     RHS c_e_x142_ 0
     RHS c_e_x143_ 0
     RHS c_e_x144_ 0
     RHS c_e_x145_ 0
     RHS c_e_x146_ 0
     RHS c_e_x147_ 0
     RHS c_e_x148_ 0
     RHS c_e_x149_ 0
     RHS c_e_x150_ 0
     RHS c_e_x151_ 0
     RHS c_e_x152_ 0
     RHS c_e_x153_ 0
     RHS c_e_x154_ 0
     RHS c_e_x155_ 0
     RHS c_l_x156_ 8.8699999999999992
     RHS c_l_x157_ 0
     RHS c_l_x158_ -3.9180000000000001
     RHS c_l_x159_ 0
     RHS c_l_x160_ 0
     RHS c_l_x161_ -4.0339999999999998
     RHS c_l_x162_ -5.2560000000000002
     RHS c_l_x163_ 20.344000000000001
     RHS c_l_x164_ 0
     RHS c_l_x165_ -6.3650000000000002
     RHS c_l_x166_ 0
     RHS c_l_x167_ -2.1200000000000001
     RHS c_l_x168_ 0
     RHS c_l_x169_ 0
     RHS c_l_x170_ -6.8479999999999999
     RHS c_l_x171_ -15.616
     RHS c_l_x172_ 0
     RHS c_l_x173_ 0
     RHS c_l_x174_ -0.222
     RHS c_l_x175_ -1.919
     RHS c_u_x176_ 11.593999999999999
     RHS c_u_x177_ 8.4000000000000004
     RHS c_u_x178_ 0
     RHS c_u_x179_ 0
     RHS c_u_x180_ 4.7999999999999998
     RHS c_u_x181_ 0
     RHS c_u_x182_ 0
     RHS c_u_x183_ 22.012
     RHS c_u_x184_ 0
     RHS c_u_x185_ 0
     RHS c_u_x186_ 0
     RHS c_u_x187_ 0
     RHS c_u_x188_ 1.2
     RHS c_u_x189_ 0.95999999999999996
     RHS c_u_x190_ 0
     RHS c_u_x191_ 0
     RHS c_u_x192_ 0
     RHS c_u_x193_ 0
     RHS c_u_x194_ 0
     RHS c_u_x195_ 0
     RHS c_e_ONE_VAR_CONSTANT 1
BOUNDS
 LO BOUND x1 0
 LO BOUND x2 0
 LO BOUND x3 0
 LO BOUND x4 0
 LO BOUND x5 0
 LO BOUND x6 0
 LO BOUND x7 0
 LO BOUND x8 0
 LO BOUND x9 0
 LO BOUND x10 0
 LO BOUND x11 0
 LO BOUND x12 0
 LO BOUND x13 0
 LO BOUND x14 0
 LO BOUND x15 0
 LO BOUND x16 0
 LO BOUND x17 0
 LO BOUND x18 0
 LO BOUND x19 0
 LO BOUND x20 0
 FR BOUND x21
 FR BOUND x22
 FR BOUND x23
 FR BOUND x24
 FR BOUND x25
 FR BOUND x26
 FR BOUND x27
 FR BOUND x28
 FR BOUND x29
 FR BOUND x30
 FR BOUND x31
 FR BOUND x32
 FR BOUND x33
 FR BOUND x34
 FR BOUND x35
 FR BOUND x36
 FR BOUND x37
 FR BOUND x38
 FR BOUND x39
 FR BOUND x40
 FR BOUND x41
 FR BOUND x42
 FR BOUND x43
 FR BOUND x44
 FR BOUND x45
 FR BOUND x46
 FR BOUND x47
 FR BOUND x48
 FR BOUND x49
 FR BOUND x50
 FR BOUND x51
 FR BOUND x52
 FR BOUND x53
 FR BOUND x54
 FR BOUND x55
 FR BOUND x56
 FR BOUND x57
 FR BOUND x58
 FR BOUND x59
 FR BOUND x60
 FR BOUND x61
 FR BOUND x62
 FR BOUND x63
 FR BOUND x64
ENDATA
